100
100
100
100
98
97
96
96
95
95
95
94
94
94
93
92
90
87
87
84
83
83
83
81
80
77
77
77
77
75
74
74
73
72
71
71
71
70
70
70
69
69
67
63
63
63
63
62
58
55
55
55
54
53
53
51
49
49
49
47
45
42
41
39
38
35
34
29
28
28
28
28
27
27
26
26
25
25
25
24
24
23
21
19
17
15
15
15
14
12
11
7
7
7
6
5
5
5
2
2
1
1
